p cnf 270 431               
-2 -1 -31 0
31 -35 0
-1 32 0
-2 32 0
1 2 -32 0
-32 -3 -33 0
33 -35 0
3 32 -34 0
34 -35 0
35 -76 0
-5 -4 -36 0
36 -40 0
-4 37 0
-5 37 0
4 5 -37 0
-37 -6 -38 0
38 -40 0
6 37 -39 0
39 -40 0
40 -76 0
-8 -7 -41 0
41 -45 0
-7 42 0
-8 42 0
7 8 -42 0
-42 -9 -43 0
43 -45 0
9 42 -44 0
44 -45 0
45 -76 0
-11 -10 -46 0
46 -50 0
-10 47 0
-11 47 0
10 11 -47 0
-47 -12 -48 0
48 -50 0
12 47 -49 0
49 -50 0
50 -76 0
-14 -13 -51 0
51 -55 0
-13 52 0
-14 52 0
13 14 -52 0
-52 -15 -53 0
53 -55 0
15 52 -54 0
54 -55 0
55 -76 0
-17 -16 -56 0
56 -60 0
-16 57 0
-17 57 0
16 17 -57 0
-57 -18 -58 0
58 -60 0
18 57 -59 0
59 -60 0
60 -76 0
-20 -19 -61 0
61 -65 0
-19 62 0
-20 62 0
19 20 -62 0
-62 -21 -63 0
63 -65 0
21 62 -64 0
64 -65 0
65 -76 0
-23 -22 -66 0
66 -70 0
-22 67 0
-23 67 0
22 23 -67 0
-67 -24 -68 0
68 -70 0
24 67 -69 0
69 -70 0
70 -76 0
-26 -25 -71 0
71 -75 0
-25 72 0
-26 72 0
25 26 -72 0
-72 -27 -73 0
73 -75 0
27 72 -74 0
74 -75 0
75 -76 0
76 -158 0
-29 -28 -77 0
77 -81 0
-28 78 0
-29 78 0
28 29 -78 0
-78 -30 -79 0
79 -81 0
30 78 -80 0
80 -81 0
81 -158 0
25 -115 0
30 -115 0
-25 -30 115 0
19 -144 0
28 -144 0
22 -147 0
29 -147 0
115 144 147 -150 0
150 153 0
-7 -28 97 0
-97 124 0
-16 -29 106 0
-106 124 0
-115 124 0
-124 153 0
26 -116 0
30 -116 0
-26 -30 116 0
20 -145 0
28 -145 0
23 -148 0
29 -148 0
116 145 148 -151 0
151 154 0
-8 -28 98 0
-98 125 0
-17 -29 107 0
-107 125 0
-116 125 0
-125 154 0
27 -117 0
30 -117 0
-27 -30 117 0
21 -146 0
28 -146 0
24 -149 0
29 -149 0
117 146 149 -152 0
152 155 0
-9 -28 99 0
-99 126 0
-18 -29 108 0
-108 126 0
-117 126 0
-126 155 0
-153 -154 -155 156 0
-156 -157 0
13 -103 0
29 -103 0
-13 -29 103 0
10 -131 0
28 -131 0
16 -134 0
30 -134 0
103 131 134 -137 0
137 140 0
-4 -28 94 0
-94 121 0
-103 121 0
-22 -30 112 0
-112 121 0
-121 140 0
14 -104 0
29 -104 0
-14 -29 104 0
11 -132 0
28 -132 0
17 -135 0
30 -135 0
104 132 135 -138 0
138 141 0
-5 -28 95 0
-95 122 0
-104 122 0
-23 -30 113 0
-113 122 0
-122 141 0
15 -105 0
29 -105 0
-15 -29 105 0
12 -133 0
28 -133 0
18 -136 0
30 -136 0
105 133 136 -139 0
139 142 0
-6 -28 96 0
-96 123 0
-105 123 0
-24 -30 114 0
-114 123 0
-123 142 0
-140 -141 -142 143 0
-143 -157 0
1 -82 0
28 -82 0
-1 -28 82 0
4 -85 0
29 -85 0
7 -88 0
30 -88 0
82 85 88 -91 0
91 127 0
-82 118 0
-10 -29 100 0
-100 118 0
-19 -30 109 0
-109 118 0
-118 127 0
2 -83 0
28 -83 0
-2 -28 83 0
5 -86 0
29 -86 0
8 -89 0
30 -89 0
83 86 89 -92 0
92 128 0
-83 119 0
-11 -29 101 0
-101 119 0
-20 -30 110 0
-110 119 0
-119 128 0
3 -84 0
28 -84 0
-3 -28 84 0
6 -87 0
29 -87 0
9 -90 0
30 -90 0
84 87 90 -93 0
93 129 0
-84 120 0
-12 -29 102 0
-102 120 0
-21 -30 111 0
-111 120 0
-120 129 0
-127 -128 -129 130 0
-130 -157 0
157 -158 0
-28 29 -159 0
159 -213 0
-28 -29 160 0
28 29 160 0
-29 29 160 0
-1 14 -161 0
-160 161 -162 0
162 -213 0
-1 -14 163 0
1 14 163 0
-14 14 163 0
-160 -163 164 0
-2 13 -165 0
-164 165 -166 0
166 -213 0
-2 -13 167 0
2 13 167 0
-13 13 167 0
-164 -167 168 0
-3 15 -169 0
-168 169 -170 0
170 -213 0
-3 -15 171 0
3 15 171 0
-15 15 171 0
-168 -171 172 0
-4 11 -173 0
-172 173 -174 0
174 -213 0
-4 -11 175 0
4 11 175 0
-11 11 175 0
-172 -175 176 0
-5 10 -177 0
-176 177 -178 0
178 -213 0
-5 -10 179 0
5 10 179 0
-10 10 179 0
-176 -179 180 0
-6 12 -181 0
-180 181 -182 0
182 -213 0
-6 -12 183 0
6 12 183 0
-12 12 183 0
-180 -183 184 0
-7 17 -185 0
-184 185 -186 0
186 -213 0
-7 -17 187 0
7 17 187 0
-17 17 187 0
-184 -187 188 0
-8 16 -189 0
-188 189 -190 0
190 -213 0
-8 -16 191 0
8 16 191 0
-16 16 191 0
-188 -191 192 0
-9 18 -193 0
-192 193 -194 0
194 -213 0
-9 -18 195 0
9 18 195 0
-18 18 195 0
-192 -195 196 0
-19 23 -197 0
-196 197 -198 0
198 -213 0
-19 -23 199 0
19 23 199 0
-23 23 199 0
-196 -199 200 0
-20 22 -201 0
-200 201 -202 0
202 -213 0
-20 -22 203 0
20 22 203 0
-22 22 203 0
-200 -203 204 0
-21 24 -205 0
-204 205 -206 0
206 -213 0
-21 -24 207 0
21 24 207 0
-24 24 207 0
-204 -207 208 0
-25 26 -209 0
-208 209 -210 0
210 -213 0
213 -269 0
-29 30 -214 0
214 -268 0
-29 -30 215 0
29 30 215 0
-30 30 215 0
-2 3 -216 0
-215 216 -217 0
217 -268 0
-2 -3 218 0
2 3 218 0
-3 3 218 0
-215 -218 219 0
-4 7 -220 0
-219 220 -221 0
221 -268 0
-4 -7 222 0
4 7 222 0
-7 7 222 0
-219 -222 223 0
-5 9 -224 0
-223 224 -225 0
225 -268 0
-5 -9 226 0
5 9 226 0
-9 9 226 0
-223 -226 227 0
-6 8 -228 0
-227 228 -229 0
229 -268 0
-6 -8 230 0
6 8 230 0
-8 8 230 0
-227 -230 231 0
-10 19 -232 0
-231 232 -233 0
233 -268 0
-10 -19 234 0
10 19 234 0
-19 19 234 0
-231 -234 235 0
-11 21 -236 0
-235 236 -237 0
237 -268 0
-11 -21 238 0
11 21 238 0
-21 21 238 0
-235 -238 239 0
-12 20 -240 0
-239 240 -241 0
241 -268 0
-12 -20 242 0
12 20 242 0
-20 20 242 0
-239 -242 243 0
-13 25 -244 0
-243 244 -245 0
245 -268 0
-13 -25 246 0
13 25 246 0
-25 25 246 0
-243 -246 247 0
-14 27 -248 0
-247 248 -249 0
249 -268 0
-14 -27 250 0
14 27 250 0
-27 27 250 0
-247 -250 251 0
-15 26 -252 0
-251 252 -253 0
253 -268 0
-15 -26 254 0
15 26 254 0
-26 26 254 0
-251 -254 255 0
-16 22 -256 0
-255 256 -257 0
257 -268 0
-16 -22 258 0
16 22 258 0
-22 22 258 0
-255 -258 259 0
-17 24 -260 0
-259 260 -261 0
261 -268 0
-17 -24 262 0
17 24 262 0
-24 24 262 0
-259 -262 263 0
-18 23 -264 0
-263 264 -265 0
265 -268 0
268 -269 0
158 0
269 0
